Maximize
  - 3.0930804051744 edge_0_2_0_0 - 2.257352995429 edge_0_3_0_0
   - 1.5182495877421 edge_0_5_0_0 - 1.6077685328208 edge_0_6_0_0
   - 2.8402346328215 edge_0_7_0_0 - 2.7025952873472 edge_0_8_0_0
   - 1.827148671608 edge_0_10_0_0 - 2.2336701033416 edge_0_14_0_0
   - 1.8652024869933 edge_0_19_0_0 - 2.699474882856 edge_0_20_0_0
   + 1.127779432492114 edge_2_3_0_0 + 0.3687024704549813 edge_2_4_0_0
   + 0.1973639480439157 edge_2_5_0_0 + 0.3265548832504989 edge_2_6_0_0
   - 0.1525098501397479 edge_2_7_0_0 - 0.400130674771467 edge_2_8_0_0
   + 0.38931885359399 edge_2_10_0_0 - 0.1222945510981707 edge_2_12_0_0
   - 0.3581010968572564 edge_2_16_0_0 + 0.0686608946253248 edge_2_17_0_0
   - 0.7682407517818153 edge_2_18_0_0 - 0.4650975560911203 edge_2_20_0_0
   - 0.4210620892755091 edge_2_22_0_0 + 0.5575222645539384 edge_2_23_0_0
   + 2.724412660991904 edge_3_2_0_0 + 2.893170649441735 edge_3_4_0_0
   + 1.187351271676091 edge_3_5_0_0 + 0.4556783139309689 edge_3_6_0_0
   - 0.4127843543005462 edge_3_7_0_0 + 0.9263084206013942 edge_3_8_0_0
   + 0.63156150121934 edge_3_10_0_0 + 0.5503760649819643 edge_3_12_0_0
   - 0.8970707817580339 edge_3_14_0_0 + 0.2435320302525774 edge_3_16_0_0
   - 0.254855171159855 edge_3_17_0_0 - 1.631579011342642 edge_3_18_0_0
   - 0.2245159652510728 edge_3_19_0_0 - 0.2039704160851334 edge_3_20_0_0
   - 0.7918592185816824 edge_3_22_0_0 + 0.3096368547423094 edge_3_23_0_0
   + 0.0715734642514706 edge_4_5_0_0 - 0.6822736951642578 edge_4_8_0_0
   + 0.0464284317522732 edge_5_2_0_0 + 0.2822588566190011 edge_5_3_0_0
   + 0.1353269001344304 edge_5_4_0_0 - 0.0535897466938706 edge_5_6_0_0
   + 0.2066140060250339 edge_5_7_0_0 + 0.2099877231062836 edge_5_8_0_0
   - 0.0916643280180927 edge_5_10_0_0 - 0.4348599406874208 edge_5_12_0_0
   - 0.597450383379217 edge_5_20_0_0 + 0.0590680707634593 edge_5_23_0_0
   - 0.1806484986876129 edge_6_2_0_0 - 0.2303018365272604 edge_6_3_0_0
   - 0.0226458781269012 edge_6_5_0_0 - 0.4629823045430341 edge_6_7_0_0
   - 0.2857526225877609 edge_7_2_0_0 - 0.0586001404869389 edge_7_3_0_0
   - 0.5975283050109074 edge_7_4_0_0 - 0.0492956225657275 edge_7_5_0_0
   + 0.1493143510626842 edge_7_6_0_0 + 1.039793865624874 edge_7_8_0_0
   + 1.0757846100565 edge_7_10_0_0 + 0.6229185772171684 edge_7_12_0_0
   - 1.531194277731505 edge_7_14_0_0 - 0.020440744276988 edge_7_16_0_0
   + 0.4082325521384877 edge_7_17_0_0 - 0.1159962574367264 edge_7_18_0_0
   - 0.0266312693740302 edge_7_19_0_0 - 0.2088078840109513 edge_7_20_0_0
   - 0.0130945085417291 edge_7_22_0_0 + 0.3405528527056318 edge_7_23_0_0
   + 0.1522508007639083 edge_8_2_0_0 + 0.0272491650574143 edge_8_3_0_0
   - 0.7127268550215976 edge_8_4_0_0 + 0.789304681599592 edge_8_5_0_0
   + 0.1832413887117815 edge_8_6_0_0 + 1.976167794611773 edge_8_7_0_0
   + 1.574031559907022 edge_8_10_0_0 - 0.2281919010216122 edge_8_11_0_0
   + 1.165637813198646 edge_8_12_0_0 + 0.1143696175668806 edge_8_14_0_0
   + 0.1708960185513583 edge_8_16_0_0 - 0.1351893038846559 edge_8_17_0_0
   - 0.7630219175443462 edge_8_18_0_0 - 1.196034728836415 edge_8_19_0_0
   - 0.4270751777321915 edge_8_20_0_0 - 0.8053417696092159 edge_8_22_0_0
   + 0.47263932489097 edge_10_2_0_0 + 0.3080952569396637 edge_10_3_0_0
   + 0.1043219504888568 edge_10_4_0_0 + 0.9321867908194634 edge_10_5_0_0
   + 0.22526661692304 edge_10_6_0_0 + 2.259441364088689 edge_10_7_0_0
   + 2.765077644197 edge_10_8_0_0 + 1.44517275280388 edge_10_11_0_0
   + 2.967711243948608 edge_10_12_0_0 + 2.226718316240244 edge_10_14_0_0
   + 1.453780899275141 edge_10_16_0_0 + 1.275731882790687 edge_10_17_0_0
   + 0.262574675572698 edge_10_18_0_0 + 0.021106153328094 edge_10_19_0_0
   + 1.04769413288 edge_10_20_0_0 + 0.21106602639568 edge_10_22_0_0
   + 0.686319863472 edge_10_23_0_0 - 0.714972001731445 edge_11_14_0_0
   - 0.9520339758205335 edge_12_2_0_0 - 1.173682432690091 edge_12_3_0_0
   - 2.183505087099358 edge_12_4_0_0 - 0.3971652995036102 edge_12_5_0_0
   - 0.1921628789573131 edge_12_6_0_0 - 0.1019967722751811 edge_12_7_0_0
   + 0.1241652250474357 edge_12_8_0_0 + 0.4966454605548 edge_12_10_0_0
   + 2.972408698705913 edge_12_11_0_0 + 1.68524946657624 edge_12_14_0_0
   + 0.9399824548805154 edge_12_16_0_0 + 0.3822015245562015 edge_12_17_0_0
   + 0.2019705795944449 edge_12_18_0_0 - 0.1259117037964501 edge_12_19_0_0
   + 0.6222790327469018 edge_12_20_0_0 + 0.4926403544169545 edge_12_22_0_0
   + 0.1899615789823991 edge_12_23_0_0 - 0.6701299734504907 edge_14_2_0_0
   - 0.4641379498801361 edge_14_3_0_0 + 0.0823709034930936 edge_14_7_0_0
   + 0.2517222209647432 edge_14_8_0_0 - 0.1493426218733136 edge_14_10_0_0
   + 0.562266774685975 edge_14_11_0_0 + 5.11382e-05 edge_14_12_0_0
   + 0.9905884351637012 edge_14_15_0_0 + 2.745321071356325 edge_14_16_0_0
   + 1.557800607829077 edge_14_17_0_0 + 0.3896146252742512 edge_14_18_0_0
   + 0.1032855233894806 edge_14_19_0_0 - 0.3610192264870443 edge_14_20_0_0
   - 0.2225575934635561 edge_14_21_0_0 - 0.3238407381656567 edge_14_22_0_0
   - 0.937222061585862 edge_16_2_0_0 - 0.8121534633899763 edge_16_3_0_0
   - 0.3661131142474542 edge_16_5_0_0 - 0.6329114156490632 edge_16_8_0_0
   - 0.8296882282967499 edge_16_10_0_0 + 0.5556217846866409 edge_16_11_0_0
   - 0.6563218818620447 edge_16_12_0_0 + 0.6755274116284729 edge_16_14_0_0
   + 3.228995133446681 edge_16_15_0_0 + 0.8615389607640191 edge_16_17_0_0
   + 0.2898293557980275 edge_16_18_0_0 + 0.3095059066669545 edge_16_19_0_0
   + 0.3847485825456219 edge_16_20_0_0 + 1.119941939238793 edge_16_22_0_0
   + 0.1955009818087912 edge_16_23_0_0 - 0.6927125665404033 edge_17_12_0_0
   - 0.9876090733216015 edge_17_16_0_0 - 0.732202104646437 edge_17_18_0_0
   - 0.5210545901430897 edge_17_19_0_0 - 1.143102691279882 edge_18_2_0_0
   - 0.9472598881321445 edge_18_3_0_0 - 1.289766751602385 edge_18_4_0_0
   - 0.6653309437332893 edge_18_5_0_0 - 0.3931417463736651 edge_18_7_0_0
   - 0.294794188331836 edge_18_8_0_0 - 0.4670206631792959 edge_18_10_0_0
   - 0.0706219287146036 edge_18_11_0_0 - 0.3913170851239041 edge_18_12_0_0
   - 0.1420800444472013 edge_18_14_0_0 + 1.124106039333124 edge_18_15_0_0
   + 0.2054308577788878 edge_18_16_0_0 + 0.4892737785122985 edge_18_17_0_0
   + 0.6597982228930653 edge_18_19_0_0 + 0.1409402334529828 edge_18_20_0_0
   - 0.2282589222692238 edge_18_22_0_0 - 0.1298897465642375 edge_18_23_0_0
   - 0.4995910465618705 edge_19_15_0_0 + 0.1377756881715203 edge_19_16_0_0
   + 0.128416951992502 edge_19_17_0_0 + 0.2966037884536621 edge_19_18_0_0
   - 0.00657300402776239 edge_19_20_0_0 - 0.1095789105470926 edge_19_22_0_0
   - 0.1654610561529666 edge_20_2_0_0 - 0.349582406258002 edge_20_3_0_0
   - 0.0145234661855209 edge_20_5_0_0 + 0.0570995571570093 edge_20_6_0_0
   + 0.4726436274764639 edge_20_7_0_0 + 0.6348480261116548 edge_20_8_0_0
   + 0.2708644831504 edge_20_10_0_0 + 0.2118652137493589 edge_20_12_0_0
   + 2.031769687578533 edge_20_16_0_0 + 1.444454533924511 edge_20_17_0_0
   + 1.544752706713399 edge_20_18_0_0 + 1.509372145785149 edge_20_19_0_0
   + 0.3049556926766305 edge_20_21_0_0 + 2.876088095706069 edge_20_22_0_0
   + 0.6177344995102304 edge_20_23_0_0 - 0.0292067633698718 edge_22_16_0_0
   - 0.1663141787377158 edge_22_18_0_0 - 0.1244902863955425 edge_22_19_0_0
   + 0.3761287541087941 edge_22_20_0_0 + 2.506058161820184 edge_22_21_0_0
   + 0.4127720672051626 edge_22_23_0_0 - 0.2170741630058457 edge_23_22_0_0
Subject To
 one_parent_1: = 1
 consume_one_flow_unit_1: = 1
 one_parent_2: edge_0_2_0_0 + edge_3_2_0_0 + edge_5_2_0_0 + edge_6_2_0_0
   + edge_7_2_0_0 + edge_8_2_0_0 + edge_10_2_0_0 + edge_12_2_0_0
   + edge_14_2_0_0 + edge_16_2_0_0 + edge_18_2_0_0 + edge_20_2_0_0 = 1
 consume_one_flow_unit_2: flow_0_2_0_0 - flow_2_3_0_0 - flow_2_4_0_0
   - flow_2_5_0_0 - flow_2_6_0_0 - flow_2_7_0_0 - flow_2_8_0_0
   - flow_2_10_0_0 - flow_2_12_0_0 - flow_2_16_0_0 - flow_2_17_0_0
   - flow_2_18_0_0 - flow_2_20_0_0 - flow_2_22_0_0 - flow_2_23_0_0
   + flow_3_2_0_0 + flow_5_2_0_0 + flow_6_2_0_0 + flow_7_2_0_0
   + flow_8_2_0_0 + flow_10_2_0_0 + flow_12_2_0_0 + flow_14_2_0_0
   + flow_16_2_0_0 + flow_18_2_0_0 + flow_20_2_0_0 = 1
 one_parent_3: edge_0_3_0_0 + edge_2_3_0_0 + edge_5_3_0_0 + edge_6_3_0_0
   + edge_7_3_0_0 + edge_8_3_0_0 + edge_10_3_0_0 + edge_12_3_0_0
   + edge_14_3_0_0 + edge_16_3_0_0 + edge_18_3_0_0 + edge_20_3_0_0 = 1
 consume_one_flow_unit_3: flow_0_3_0_0 + flow_2_3_0_0 - flow_3_2_0_0
   - flow_3_4_0_0 - flow_3_5_0_0 - flow_3_6_0_0 - flow_3_7_0_0
   - flow_3_8_0_0 - flow_3_10_0_0 - flow_3_12_0_0 - flow_3_14_0_0
   - flow_3_16_0_0 - flow_3_17_0_0 - flow_3_18_0_0 - flow_3_19_0_0
   - flow_3_20_0_0 - flow_3_22_0_0 - flow_3_23_0_0 + flow_5_3_0_0
   + flow_6_3_0_0 + flow_7_3_0_0 + flow_8_3_0_0 + flow_10_3_0_0
   + flow_12_3_0_0 + flow_14_3_0_0 + flow_16_3_0_0 + flow_18_3_0_0
   + flow_20_3_0_0 = 1
 one_parent_4: edge_2_4_0_0 + edge_3_4_0_0 + edge_5_4_0_0 + edge_7_4_0_0
   + edge_8_4_0_0 + edge_10_4_0_0 + edge_12_4_0_0 + edge_18_4_0_0 = 1
 consume_one_flow_unit_4: flow_2_4_0_0 + flow_3_4_0_0 - flow_4_5_0_0
   - flow_4_8_0_0 + flow_5_4_0_0 + flow_7_4_0_0 + flow_8_4_0_0
   + flow_10_4_0_0 + flow_12_4_0_0 + flow_18_4_0_0 = 1
 one_parent_5: edge_0_5_0_0 + edge_2_5_0_0 + edge_3_5_0_0 + edge_4_5_0_0
   + edge_6_5_0_0 + edge_7_5_0_0 + edge_8_5_0_0 + edge_10_5_0_0
   + edge_12_5_0_0 + edge_16_5_0_0 + edge_18_5_0_0 + edge_20_5_0_0 = 1
 consume_one_flow_unit_5: flow_0_5_0_0 + flow_2_5_0_0 + flow_3_5_0_0
   + flow_4_5_0_0 - flow_5_2_0_0 - flow_5_3_0_0 - flow_5_4_0_0
   - flow_5_6_0_0 - flow_5_7_0_0 - flow_5_8_0_0 - flow_5_10_0_0
   - flow_5_12_0_0 - flow_5_20_0_0 - flow_5_23_0_0 + flow_6_5_0_0
   + flow_7_5_0_0 + flow_8_5_0_0 + flow_10_5_0_0 + flow_12_5_0_0
   + flow_16_5_0_0 + flow_18_5_0_0 + flow_20_5_0_0 = 1
 one_parent_6: edge_0_6_0_0 + edge_2_6_0_0 + edge_3_6_0_0 + edge_5_6_0_0
   + edge_7_6_0_0 + edge_8_6_0_0 + edge_10_6_0_0 + edge_12_6_0_0
   + edge_20_6_0_0 = 1
 consume_one_flow_unit_6: flow_0_6_0_0 + flow_2_6_0_0 + flow_3_6_0_0
   + flow_5_6_0_0 - flow_6_2_0_0 - flow_6_3_0_0 - flow_6_5_0_0
   - flow_6_7_0_0 + flow_7_6_0_0 + flow_8_6_0_0 + flow_10_6_0_0
   + flow_12_6_0_0 + flow_20_6_0_0 = 1
 one_parent_7: edge_0_7_0_0 + edge_2_7_0_0 + edge_3_7_0_0 + edge_5_7_0_0
   + edge_6_7_0_0 + edge_8_7_0_0 + edge_10_7_0_0 + edge_12_7_0_0
   + edge_14_7_0_0 + edge_18_7_0_0 + edge_20_7_0_0 = 1
 consume_one_flow_unit_7: flow_0_7_0_0 + flow_2_7_0_0 + flow_3_7_0_0
   + flow_5_7_0_0 + flow_6_7_0_0 - flow_7_2_0_0 - flow_7_3_0_0
   - flow_7_4_0_0 - flow_7_5_0_0 - flow_7_6_0_0 - flow_7_8_0_0
   - flow_7_10_0_0 - flow_7_12_0_0 - flow_7_14_0_0 - flow_7_16_0_0
   - flow_7_17_0_0 - flow_7_18_0_0 - flow_7_19_0_0 - flow_7_20_0_0
   - flow_7_22_0_0 - flow_7_23_0_0 + flow_8_7_0_0 + flow_10_7_0_0
   + flow_12_7_0_0 + flow_14_7_0_0 + flow_18_7_0_0 + flow_20_7_0_0 = 1
 one_parent_8: edge_0_8_0_0 + edge_2_8_0_0 + edge_3_8_0_0 + edge_4_8_0_0
   + edge_5_8_0_0 + edge_7_8_0_0 + edge_10_8_0_0 + edge_12_8_0_0
   + edge_14_8_0_0 + edge_16_8_0_0 + edge_18_8_0_0 + edge_20_8_0_0 = 1
 consume_one_flow_unit_8: flow_0_8_0_0 + flow_2_8_0_0 + flow_3_8_0_0
   + flow_4_8_0_0 + flow_5_8_0_0 + flow_7_8_0_0 - flow_8_2_0_0
   - flow_8_3_0_0 - flow_8_4_0_0 - flow_8_5_0_0 - flow_8_6_0_0
   - flow_8_7_0_0 - flow_8_10_0_0 - flow_8_11_0_0 - flow_8_12_0_0
   - flow_8_14_0_0 - flow_8_16_0_0 - flow_8_17_0_0 - flow_8_18_0_0
   - flow_8_19_0_0 - flow_8_20_0_0 - flow_8_22_0_0 + flow_10_8_0_0
   + flow_12_8_0_0 + flow_14_8_0_0 + flow_16_8_0_0 + flow_18_8_0_0
   + flow_20_8_0_0 = 1
 one_parent_9: = 1
 consume_one_flow_unit_9: = 1
 one_parent_10: edge_0_10_0_0 + edge_2_10_0_0 + edge_3_10_0_0
   + edge_5_10_0_0 + edge_7_10_0_0 + edge_8_10_0_0 + edge_12_10_0_0
   + edge_14_10_0_0 + edge_16_10_0_0 + edge_18_10_0_0 + edge_20_10_0_0 = 1
 consume_one_flow_unit_10: flow_0_10_0_0 + flow_2_10_0_0 + flow_3_10_0_0
   + flow_5_10_0_0 + flow_7_10_0_0 + flow_8_10_0_0 - flow_10_2_0_0
   - flow_10_3_0_0 - flow_10_4_0_0 - flow_10_5_0_0 - flow_10_6_0_0
   - flow_10_7_0_0 - flow_10_8_0_0 - flow_10_11_0_0 - flow_10_12_0_0
   - flow_10_14_0_0 - flow_10_16_0_0 - flow_10_17_0_0 - flow_10_18_0_0
   - flow_10_19_0_0 - flow_10_20_0_0 - flow_10_22_0_0 - flow_10_23_0_0
   + flow_12_10_0_0 + flow_14_10_0_0 + flow_16_10_0_0 + flow_18_10_0_0
   + flow_20_10_0_0 = 1
 one_parent_11: edge_8_11_0_0 + edge_10_11_0_0 + edge_12_11_0_0
   + edge_14_11_0_0 + edge_16_11_0_0 + edge_18_11_0_0 = 1
 consume_one_flow_unit_11: flow_8_11_0_0 + flow_10_11_0_0 - flow_11_14_0_0
   + flow_12_11_0_0 + flow_14_11_0_0 + flow_16_11_0_0 + flow_18_11_0_0 = 1
 one_parent_12: edge_2_12_0_0 + edge_3_12_0_0 + edge_5_12_0_0
   + edge_7_12_0_0 + edge_8_12_0_0 + edge_10_12_0_0 + edge_14_12_0_0
   + edge_16_12_0_0 + edge_17_12_0_0 + edge_18_12_0_0 + edge_20_12_0_0 = 1
 consume_one_flow_unit_12: flow_2_12_0_0 + flow_3_12_0_0 + flow_5_12_0_0
   + flow_7_12_0_0 + flow_8_12_0_0 + flow_10_12_0_0 - flow_12_2_0_0
   - flow_12_3_0_0 - flow_12_4_0_0 - flow_12_5_0_0 - flow_12_6_0_0
   - flow_12_7_0_0 - flow_12_8_0_0 - flow_12_10_0_0 - flow_12_11_0_0
   - flow_12_14_0_0 - flow_12_16_0_0 - flow_12_17_0_0 - flow_12_18_0_0
   - flow_12_19_0_0 - flow_12_20_0_0 - flow_12_22_0_0 - flow_12_23_0_0
   + flow_14_12_0_0 + flow_16_12_0_0 + flow_17_12_0_0 + flow_18_12_0_0
   + flow_20_12_0_0 = 1
 one_parent_13: = 1
 consume_one_flow_unit_13: = 1
 one_parent_14: edge_0_14_0_0 + edge_3_14_0_0 + edge_7_14_0_0
   + edge_8_14_0_0 + edge_10_14_0_0 + edge_11_14_0_0 + edge_12_14_0_0
   + edge_16_14_0_0 + edge_18_14_0_0 = 1
 consume_one_flow_unit_14: flow_0_14_0_0 + flow_3_14_0_0 + flow_7_14_0_0
   + flow_8_14_0_0 + flow_10_14_0_0 + flow_11_14_0_0 + flow_12_14_0_0
   - flow_14_2_0_0 - flow_14_3_0_0 - flow_14_7_0_0 - flow_14_8_0_0
   - flow_14_10_0_0 - flow_14_11_0_0 - flow_14_12_0_0 - flow_14_15_0_0
   - flow_14_16_0_0 - flow_14_17_0_0 - flow_14_18_0_0 - flow_14_19_0_0
   - flow_14_20_0_0 - flow_14_21_0_0 - flow_14_22_0_0 + flow_16_14_0_0
   + flow_18_14_0_0 = 1
 one_parent_15: edge_14_15_0_0 + edge_16_15_0_0 + edge_18_15_0_0
   + edge_19_15_0_0 = 1
 consume_one_flow_unit_15: flow_14_15_0_0 + flow_16_15_0_0 + flow_18_15_0_0
   + flow_19_15_0_0 = 1
 one_parent_16: edge_2_16_0_0 + edge_3_16_0_0 + edge_7_16_0_0
   + edge_8_16_0_0 + edge_10_16_0_0 + edge_12_16_0_0 + edge_14_16_0_0
   + edge_17_16_0_0 + edge_18_16_0_0 + edge_19_16_0_0 + edge_20_16_0_0
   + edge_22_16_0_0 = 1
 consume_one_flow_unit_16: flow_2_16_0_0 + flow_3_16_0_0 + flow_7_16_0_0
   + flow_8_16_0_0 + flow_10_16_0_0 + flow_12_16_0_0 + flow_14_16_0_0
   - flow_16_2_0_0 - flow_16_3_0_0 - flow_16_5_0_0 - flow_16_8_0_0
   - flow_16_10_0_0 - flow_16_11_0_0 - flow_16_12_0_0 - flow_16_14_0_0
   - flow_16_15_0_0 - flow_16_17_0_0 - flow_16_18_0_0 - flow_16_19_0_0
   - flow_16_20_0_0 - flow_16_22_0_0 - flow_16_23_0_0 + flow_17_16_0_0
   + flow_18_16_0_0 + flow_19_16_0_0 + flow_20_16_0_0 + flow_22_16_0_0 = 1
 one_parent_17: edge_2_17_0_0 + edge_3_17_0_0 + edge_7_17_0_0
   + edge_8_17_0_0 + edge_10_17_0_0 + edge_12_17_0_0 + edge_14_17_0_0
   + edge_16_17_0_0 + edge_18_17_0_0 + edge_19_17_0_0 + edge_20_17_0_0 = 1
 consume_one_flow_unit_17: flow_2_17_0_0 + flow_3_17_0_0 + flow_7_17_0_0
   + flow_8_17_0_0 + flow_10_17_0_0 + flow_12_17_0_0 + flow_14_17_0_0
   + flow_16_17_0_0 - flow_17_12_0_0 - flow_17_16_0_0 - flow_17_18_0_0
   - flow_17_19_0_0 + flow_18_17_0_0 + flow_19_17_0_0 + flow_20_17_0_0 = 1
 one_parent_18: edge_2_18_0_0 + edge_3_18_0_0 + edge_7_18_0_0
   + edge_8_18_0_0 + edge_10_18_0_0 + edge_12_18_0_0 + edge_14_18_0_0
   + edge_16_18_0_0 + edge_17_18_0_0 + edge_19_18_0_0 + edge_20_18_0_0
   + edge_22_18_0_0 = 1
 consume_one_flow_unit_18: flow_2_18_0_0 + flow_3_18_0_0 + flow_7_18_0_0
   + flow_8_18_0_0 + flow_10_18_0_0 + flow_12_18_0_0 + flow_14_18_0_0
   + flow_16_18_0_0 + flow_17_18_0_0 - flow_18_2_0_0 - flow_18_3_0_0
   - flow_18_4_0_0 - flow_18_5_0_0 - flow_18_7_0_0 - flow_18_8_0_0
   - flow_18_10_0_0 - flow_18_11_0_0 - flow_18_12_0_0 - flow_18_14_0_0
   - flow_18_15_0_0 - flow_18_16_0_0 - flow_18_17_0_0 - flow_18_19_0_0
   - flow_18_20_0_0 - flow_18_22_0_0 - flow_18_23_0_0 + flow_19_18_0_0
   + flow_20_18_0_0 + flow_22_18_0_0 = 1
 one_parent_19: edge_0_19_0_0 + edge_3_19_0_0 + edge_7_19_0_0
   + edge_8_19_0_0 + edge_10_19_0_0 + edge_12_19_0_0 + edge_14_19_0_0
   + edge_16_19_0_0 + edge_17_19_0_0 + edge_18_19_0_0 + edge_20_19_0_0
   + edge_22_19_0_0 = 1
 consume_one_flow_unit_19: flow_0_19_0_0 + flow_3_19_0_0 + flow_7_19_0_0
   + flow_8_19_0_0 + flow_10_19_0_0 + flow_12_19_0_0 + flow_14_19_0_0
   + flow_16_19_0_0 + flow_17_19_0_0 + flow_18_19_0_0 - flow_19_15_0_0
   - flow_19_16_0_0 - flow_19_17_0_0 - flow_19_18_0_0 - flow_19_20_0_0
   - flow_19_22_0_0 + flow_20_19_0_0 + flow_22_19_0_0 = 1
 one_parent_20: edge_0_20_0_0 + edge_2_20_0_0 + edge_3_20_0_0
   + edge_5_20_0_0 + edge_7_20_0_0 + edge_8_20_0_0 + edge_10_20_0_0
   + edge_12_20_0_0 + edge_14_20_0_0 + edge_16_20_0_0 + edge_18_20_0_0
   + edge_19_20_0_0 + edge_22_20_0_0 = 1
 consume_one_flow_unit_20: flow_0_20_0_0 + flow_2_20_0_0 + flow_3_20_0_0
   + flow_5_20_0_0 + flow_7_20_0_0 + flow_8_20_0_0 + flow_10_20_0_0
   + flow_12_20_0_0 + flow_14_20_0_0 + flow_16_20_0_0 + flow_18_20_0_0
   + flow_19_20_0_0 - flow_20_2_0_0 - flow_20_3_0_0 - flow_20_5_0_0
   - flow_20_6_0_0 - flow_20_7_0_0 - flow_20_8_0_0 - flow_20_10_0_0
   - flow_20_12_0_0 - flow_20_16_0_0 - flow_20_17_0_0 - flow_20_18_0_0
   - flow_20_19_0_0 - flow_20_21_0_0 - flow_20_22_0_0 - flow_20_23_0_0
   + flow_22_20_0_0 = 1
 one_parent_21: edge_14_21_0_0 + edge_20_21_0_0 + edge_22_21_0_0 = 1
 consume_one_flow_unit_21: flow_14_21_0_0 + flow_20_21_0_0 + flow_22_21_0_0
   = 1
 one_parent_22: edge_2_22_0_0 + edge_3_22_0_0 + edge_7_22_0_0
   + edge_8_22_0_0 + edge_10_22_0_0 + edge_12_22_0_0 + edge_14_22_0_0
   + edge_16_22_0_0 + edge_18_22_0_0 + edge_19_22_0_0 + edge_20_22_0_0
   + edge_23_22_0_0 = 1
 consume_one_flow_unit_22: flow_2_22_0_0 + flow_3_22_0_0 + flow_7_22_0_0
   + flow_8_22_0_0 + flow_10_22_0_0 + flow_12_22_0_0 + flow_14_22_0_0
   + flow_16_22_0_0 + flow_18_22_0_0 + flow_19_22_0_0 + flow_20_22_0_0
   - flow_22_16_0_0 - flow_22_18_0_0 - flow_22_19_0_0 - flow_22_20_0_0
   - flow_22_21_0_0 - flow_22_23_0_0 + flow_23_22_0_0 = 1
 one_parent_23: edge_2_23_0_0 + edge_3_23_0_0 + edge_5_23_0_0
   + edge_7_23_0_0 + edge_10_23_0_0 + edge_12_23_0_0 + edge_16_23_0_0
   + edge_18_23_0_0 + edge_20_23_0_0 + edge_22_23_0_0 = 1
 consume_one_flow_unit_23: flow_2_23_0_0 + flow_3_23_0_0 + flow_5_23_0_0
   + flow_7_23_0_0 + flow_10_23_0_0 + flow_12_23_0_0 + flow_16_23_0_0
   + flow_18_23_0_0 + flow_20_23_0_0 + flow_22_23_0_0 - flow_23_22_0_0 = 1
 root_flow: flow_0_2_0_0 + flow_0_3_0_0 + flow_0_5_0_0 + flow_0_6_0_0
   + flow_0_7_0_0 + flow_0_8_0_0 + flow_0_10_0_0 + flow_0_14_0_0
   + flow_0_19_0_0 + flow_0_20_0_0 = 23
 inactive_no_flow_0_2_0_0: flow_0_2_0_0 - 1000 edge_0_2_0_0 <= 0
 inactive_no_flow_0_3_0_0: flow_0_3_0_0 - 1000 edge_0_3_0_0 <= 0
 inactive_no_flow_0_5_0_0: flow_0_5_0_0 - 1000 edge_0_5_0_0 <= 0
 inactive_no_flow_0_6_0_0: flow_0_6_0_0 - 1000 edge_0_6_0_0 <= 0
 inactive_no_flow_0_7_0_0: flow_0_7_0_0 - 1000 edge_0_7_0_0 <= 0
 inactive_no_flow_0_8_0_0: flow_0_8_0_0 - 1000 edge_0_8_0_0 <= 0
 inactive_no_flow_0_10_0_0: flow_0_10_0_0 - 1000 edge_0_10_0_0 <= 0
 inactive_no_flow_0_14_0_0: flow_0_14_0_0 - 1000 edge_0_14_0_0 <= 0
 inactive_no_flow_0_19_0_0: flow_0_19_0_0 - 1000 edge_0_19_0_0 <= 0
 inactive_no_flow_0_20_0_0: flow_0_20_0_0 - 1000 edge_0_20_0_0 <= 0
 inactive_no_flow_2_3_0_0: flow_2_3_0_0 - 1000 edge_2_3_0_0 <= 0
 inactive_no_flow_2_4_0_0: flow_2_4_0_0 - 1000 edge_2_4_0_0 <= 0
 inactive_no_flow_2_5_0_0: flow_2_5_0_0 - 1000 edge_2_5_0_0 <= 0
 inactive_no_flow_2_6_0_0: flow_2_6_0_0 - 1000 edge_2_6_0_0 <= 0
 inactive_no_flow_2_7_0_0: flow_2_7_0_0 - 1000 edge_2_7_0_0 <= 0
 inactive_no_flow_2_8_0_0: flow_2_8_0_0 - 1000 edge_2_8_0_0 <= 0
 inactive_no_flow_2_10_0_0: flow_2_10_0_0 - 1000 edge_2_10_0_0 <= 0
 inactive_no_flow_2_12_0_0: flow_2_12_0_0 - 1000 edge_2_12_0_0 <= 0
 inactive_no_flow_2_16_0_0: flow_2_16_0_0 - 1000 edge_2_16_0_0 <= 0
 inactive_no_flow_2_17_0_0: flow_2_17_0_0 - 1000 edge_2_17_0_0 <= 0
 inactive_no_flow_2_18_0_0: flow_2_18_0_0 - 1000 edge_2_18_0_0 <= 0
 inactive_no_flow_2_20_0_0: flow_2_20_0_0 - 1000 edge_2_20_0_0 <= 0
 inactive_no_flow_2_22_0_0: flow_2_22_0_0 - 1000 edge_2_22_0_0 <= 0
 inactive_no_flow_2_23_0_0: flow_2_23_0_0 - 1000 edge_2_23_0_0 <= 0
 inactive_no_flow_3_2_0_0: flow_3_2_0_0 - 1000 edge_3_2_0_0 <= 0
 inactive_no_flow_3_4_0_0: flow_3_4_0_0 - 1000 edge_3_4_0_0 <= 0
 inactive_no_flow_3_5_0_0: flow_3_5_0_0 - 1000 edge_3_5_0_0 <= 0
 inactive_no_flow_3_6_0_0: flow_3_6_0_0 - 1000 edge_3_6_0_0 <= 0
 inactive_no_flow_3_7_0_0: flow_3_7_0_0 - 1000 edge_3_7_0_0 <= 0
 inactive_no_flow_3_8_0_0: flow_3_8_0_0 - 1000 edge_3_8_0_0 <= 0
 inactive_no_flow_3_10_0_0: flow_3_10_0_0 - 1000 edge_3_10_0_0 <= 0
 inactive_no_flow_3_12_0_0: flow_3_12_0_0 - 1000 edge_3_12_0_0 <= 0
 inactive_no_flow_3_14_0_0: flow_3_14_0_0 - 1000 edge_3_14_0_0 <= 0
 inactive_no_flow_3_16_0_0: flow_3_16_0_0 - 1000 edge_3_16_0_0 <= 0
 inactive_no_flow_3_17_0_0: flow_3_17_0_0 - 1000 edge_3_17_0_0 <= 0
 inactive_no_flow_3_18_0_0: flow_3_18_0_0 - 1000 edge_3_18_0_0 <= 0
 inactive_no_flow_3_19_0_0: flow_3_19_0_0 - 1000 edge_3_19_0_0 <= 0
 inactive_no_flow_3_20_0_0: flow_3_20_0_0 - 1000 edge_3_20_0_0 <= 0
 inactive_no_flow_3_22_0_0: flow_3_22_0_0 - 1000 edge_3_22_0_0 <= 0
 inactive_no_flow_3_23_0_0: flow_3_23_0_0 - 1000 edge_3_23_0_0 <= 0
 inactive_no_flow_4_5_0_0: flow_4_5_0_0 - 1000 edge_4_5_0_0 <= 0
 inactive_no_flow_4_8_0_0: flow_4_8_0_0 - 1000 edge_4_8_0_0 <= 0
 inactive_no_flow_5_2_0_0: flow_5_2_0_0 - 1000 edge_5_2_0_0 <= 0
 inactive_no_flow_5_3_0_0: flow_5_3_0_0 - 1000 edge_5_3_0_0 <= 0
 inactive_no_flow_5_4_0_0: flow_5_4_0_0 - 1000 edge_5_4_0_0 <= 0
 inactive_no_flow_5_6_0_0: flow_5_6_0_0 - 1000 edge_5_6_0_0 <= 0
 inactive_no_flow_5_7_0_0: flow_5_7_0_0 - 1000 edge_5_7_0_0 <= 0
 inactive_no_flow_5_8_0_0: flow_5_8_0_0 - 1000 edge_5_8_0_0 <= 0
 inactive_no_flow_5_10_0_0: flow_5_10_0_0 - 1000 edge_5_10_0_0 <= 0
 inactive_no_flow_5_12_0_0: flow_5_12_0_0 - 1000 edge_5_12_0_0 <= 0
 inactive_no_flow_5_20_0_0: flow_5_20_0_0 - 1000 edge_5_20_0_0 <= 0
 inactive_no_flow_5_23_0_0: flow_5_23_0_0 - 1000 edge_5_23_0_0 <= 0
 inactive_no_flow_6_2_0_0: flow_6_2_0_0 - 1000 edge_6_2_0_0 <= 0
 inactive_no_flow_6_3_0_0: flow_6_3_0_0 - 1000 edge_6_3_0_0 <= 0
 inactive_no_flow_6_5_0_0: flow_6_5_0_0 - 1000 edge_6_5_0_0 <= 0
 inactive_no_flow_6_7_0_0: flow_6_7_0_0 - 1000 edge_6_7_0_0 <= 0
 inactive_no_flow_7_2_0_0: flow_7_2_0_0 - 1000 edge_7_2_0_0 <= 0
 inactive_no_flow_7_3_0_0: flow_7_3_0_0 - 1000 edge_7_3_0_0 <= 0
 inactive_no_flow_7_4_0_0: flow_7_4_0_0 - 1000 edge_7_4_0_0 <= 0
 inactive_no_flow_7_5_0_0: flow_7_5_0_0 - 1000 edge_7_5_0_0 <= 0
 inactive_no_flow_7_6_0_0: flow_7_6_0_0 - 1000 edge_7_6_0_0 <= 0
 inactive_no_flow_7_8_0_0: flow_7_8_0_0 - 1000 edge_7_8_0_0 <= 0
 inactive_no_flow_7_10_0_0: flow_7_10_0_0 - 1000 edge_7_10_0_0 <= 0
 inactive_no_flow_7_12_0_0: flow_7_12_0_0 - 1000 edge_7_12_0_0 <= 0
 inactive_no_flow_7_14_0_0: flow_7_14_0_0 - 1000 edge_7_14_0_0 <= 0
 inactive_no_flow_7_16_0_0: flow_7_16_0_0 - 1000 edge_7_16_0_0 <= 0
 inactive_no_flow_7_17_0_0: flow_7_17_0_0 - 1000 edge_7_17_0_0 <= 0
 inactive_no_flow_7_18_0_0: flow_7_18_0_0 - 1000 edge_7_18_0_0 <= 0
 inactive_no_flow_7_19_0_0: flow_7_19_0_0 - 1000 edge_7_19_0_0 <= 0
 inactive_no_flow_7_20_0_0: flow_7_20_0_0 - 1000 edge_7_20_0_0 <= 0
 inactive_no_flow_7_22_0_0: flow_7_22_0_0 - 1000 edge_7_22_0_0 <= 0
 inactive_no_flow_7_23_0_0: flow_7_23_0_0 - 1000 edge_7_23_0_0 <= 0
 inactive_no_flow_8_2_0_0: flow_8_2_0_0 - 1000 edge_8_2_0_0 <= 0
 inactive_no_flow_8_3_0_0: flow_8_3_0_0 - 1000 edge_8_3_0_0 <= 0
 inactive_no_flow_8_4_0_0: flow_8_4_0_0 - 1000 edge_8_4_0_0 <= 0
 inactive_no_flow_8_5_0_0: flow_8_5_0_0 - 1000 edge_8_5_0_0 <= 0
 inactive_no_flow_8_6_0_0: flow_8_6_0_0 - 1000 edge_8_6_0_0 <= 0
 inactive_no_flow_8_7_0_0: flow_8_7_0_0 - 1000 edge_8_7_0_0 <= 0
 inactive_no_flow_8_10_0_0: flow_8_10_0_0 - 1000 edge_8_10_0_0 <= 0
 inactive_no_flow_8_11_0_0: flow_8_11_0_0 - 1000 edge_8_11_0_0 <= 0
 inactive_no_flow_8_12_0_0: flow_8_12_0_0 - 1000 edge_8_12_0_0 <= 0
 inactive_no_flow_8_14_0_0: flow_8_14_0_0 - 1000 edge_8_14_0_0 <= 0
 inactive_no_flow_8_16_0_0: flow_8_16_0_0 - 1000 edge_8_16_0_0 <= 0
 inactive_no_flow_8_17_0_0: flow_8_17_0_0 - 1000 edge_8_17_0_0 <= 0
 inactive_no_flow_8_18_0_0: flow_8_18_0_0 - 1000 edge_8_18_0_0 <= 0
 inactive_no_flow_8_19_0_0: flow_8_19_0_0 - 1000 edge_8_19_0_0 <= 0
 inactive_no_flow_8_20_0_0: flow_8_20_0_0 - 1000 edge_8_20_0_0 <= 0
 inactive_no_flow_8_22_0_0: flow_8_22_0_0 - 1000 edge_8_22_0_0 <= 0
 inactive_no_flow_10_2_0_0: flow_10_2_0_0 - 1000 edge_10_2_0_0 <= 0
 inactive_no_flow_10_3_0_0: flow_10_3_0_0 - 1000 edge_10_3_0_0 <= 0
 inactive_no_flow_10_4_0_0: flow_10_4_0_0 - 1000 edge_10_4_0_0 <= 0
 inactive_no_flow_10_5_0_0: flow_10_5_0_0 - 1000 edge_10_5_0_0 <= 0
 inactive_no_flow_10_6_0_0: flow_10_6_0_0 - 1000 edge_10_6_0_0 <= 0
 inactive_no_flow_10_7_0_0: flow_10_7_0_0 - 1000 edge_10_7_0_0 <= 0
 inactive_no_flow_10_8_0_0: flow_10_8_0_0 - 1000 edge_10_8_0_0 <= 0
 inactive_no_flow_10_11_0_0: flow_10_11_0_0 - 1000 edge_10_11_0_0 <= 0
 inactive_no_flow_10_12_0_0: flow_10_12_0_0 - 1000 edge_10_12_0_0 <= 0
 inactive_no_flow_10_14_0_0: flow_10_14_0_0 - 1000 edge_10_14_0_0 <= 0
 inactive_no_flow_10_16_0_0: flow_10_16_0_0 - 1000 edge_10_16_0_0 <= 0
 inactive_no_flow_10_17_0_0: flow_10_17_0_0 - 1000 edge_10_17_0_0 <= 0
 inactive_no_flow_10_18_0_0: flow_10_18_0_0 - 1000 edge_10_18_0_0 <= 0
 inactive_no_flow_10_19_0_0: flow_10_19_0_0 - 1000 edge_10_19_0_0 <= 0
 inactive_no_flow_10_20_0_0: flow_10_20_0_0 - 1000 edge_10_20_0_0 <= 0
 inactive_no_flow_10_22_0_0: flow_10_22_0_0 - 1000 edge_10_22_0_0 <= 0
 inactive_no_flow_10_23_0_0: flow_10_23_0_0 - 1000 edge_10_23_0_0 <= 0
 inactive_no_flow_11_14_0_0: flow_11_14_0_0 - 1000 edge_11_14_0_0 <= 0
 inactive_no_flow_12_2_0_0: flow_12_2_0_0 - 1000 edge_12_2_0_0 <= 0
 inactive_no_flow_12_3_0_0: flow_12_3_0_0 - 1000 edge_12_3_0_0 <= 0
 inactive_no_flow_12_4_0_0: flow_12_4_0_0 - 1000 edge_12_4_0_0 <= 0
 inactive_no_flow_12_5_0_0: flow_12_5_0_0 - 1000 edge_12_5_0_0 <= 0
 inactive_no_flow_12_6_0_0: flow_12_6_0_0 - 1000 edge_12_6_0_0 <= 0
 inactive_no_flow_12_7_0_0: flow_12_7_0_0 - 1000 edge_12_7_0_0 <= 0
 inactive_no_flow_12_8_0_0: flow_12_8_0_0 - 1000 edge_12_8_0_0 <= 0
 inactive_no_flow_12_10_0_0: flow_12_10_0_0 - 1000 edge_12_10_0_0 <= 0
 inactive_no_flow_12_11_0_0: flow_12_11_0_0 - 1000 edge_12_11_0_0 <= 0
 inactive_no_flow_12_14_0_0: flow_12_14_0_0 - 1000 edge_12_14_0_0 <= 0
 inactive_no_flow_12_16_0_0: flow_12_16_0_0 - 1000 edge_12_16_0_0 <= 0
 inactive_no_flow_12_17_0_0: flow_12_17_0_0 - 1000 edge_12_17_0_0 <= 0
 inactive_no_flow_12_18_0_0: flow_12_18_0_0 - 1000 edge_12_18_0_0 <= 0
 inactive_no_flow_12_19_0_0: flow_12_19_0_0 - 1000 edge_12_19_0_0 <= 0
 inactive_no_flow_12_20_0_0: flow_12_20_0_0 - 1000 edge_12_20_0_0 <= 0
 inactive_no_flow_12_22_0_0: flow_12_22_0_0 - 1000 edge_12_22_0_0 <= 0
 inactive_no_flow_12_23_0_0: flow_12_23_0_0 - 1000 edge_12_23_0_0 <= 0
 inactive_no_flow_14_2_0_0: flow_14_2_0_0 - 1000 edge_14_2_0_0 <= 0
 inactive_no_flow_14_3_0_0: flow_14_3_0_0 - 1000 edge_14_3_0_0 <= 0
 inactive_no_flow_14_7_0_0: flow_14_7_0_0 - 1000 edge_14_7_0_0 <= 0
 inactive_no_flow_14_8_0_0: flow_14_8_0_0 - 1000 edge_14_8_0_0 <= 0
 inactive_no_flow_14_10_0_0: flow_14_10_0_0 - 1000 edge_14_10_0_0 <= 0
 inactive_no_flow_14_11_0_0: flow_14_11_0_0 - 1000 edge_14_11_0_0 <= 0
 inactive_no_flow_14_12_0_0: flow_14_12_0_0 - 1000 edge_14_12_0_0 <= 0
 inactive_no_flow_14_15_0_0: flow_14_15_0_0 - 1000 edge_14_15_0_0 <= 0
 inactive_no_flow_14_16_0_0: flow_14_16_0_0 - 1000 edge_14_16_0_0 <= 0
 inactive_no_flow_14_17_0_0: flow_14_17_0_0 - 1000 edge_14_17_0_0 <= 0
 inactive_no_flow_14_18_0_0: flow_14_18_0_0 - 1000 edge_14_18_0_0 <= 0
 inactive_no_flow_14_19_0_0: flow_14_19_0_0 - 1000 edge_14_19_0_0 <= 0
 inactive_no_flow_14_20_0_0: flow_14_20_0_0 - 1000 edge_14_20_0_0 <= 0
 inactive_no_flow_14_21_0_0: flow_14_21_0_0 - 1000 edge_14_21_0_0 <= 0
 inactive_no_flow_14_22_0_0: flow_14_22_0_0 - 1000 edge_14_22_0_0 <= 0
 inactive_no_flow_16_2_0_0: flow_16_2_0_0 - 1000 edge_16_2_0_0 <= 0
 inactive_no_flow_16_3_0_0: flow_16_3_0_0 - 1000 edge_16_3_0_0 <= 0
 inactive_no_flow_16_5_0_0: flow_16_5_0_0 - 1000 edge_16_5_0_0 <= 0
 inactive_no_flow_16_8_0_0: flow_16_8_0_0 - 1000 edge_16_8_0_0 <= 0
 inactive_no_flow_16_10_0_0: flow_16_10_0_0 - 1000 edge_16_10_0_0 <= 0
 inactive_no_flow_16_11_0_0: flow_16_11_0_0 - 1000 edge_16_11_0_0 <= 0
 inactive_no_flow_16_12_0_0: flow_16_12_0_0 - 1000 edge_16_12_0_0 <= 0
 inactive_no_flow_16_14_0_0: flow_16_14_0_0 - 1000 edge_16_14_0_0 <= 0
 inactive_no_flow_16_15_0_0: flow_16_15_0_0 - 1000 edge_16_15_0_0 <= 0
 inactive_no_flow_16_17_0_0: flow_16_17_0_0 - 1000 edge_16_17_0_0 <= 0
 inactive_no_flow_16_18_0_0: flow_16_18_0_0 - 1000 edge_16_18_0_0 <= 0
 inactive_no_flow_16_19_0_0: flow_16_19_0_0 - 1000 edge_16_19_0_0 <= 0
 inactive_no_flow_16_20_0_0: flow_16_20_0_0 - 1000 edge_16_20_0_0 <= 0
 inactive_no_flow_16_22_0_0: flow_16_22_0_0 - 1000 edge_16_22_0_0 <= 0
 inactive_no_flow_16_23_0_0: flow_16_23_0_0 - 1000 edge_16_23_0_0 <= 0
 inactive_no_flow_17_12_0_0: flow_17_12_0_0 - 1000 edge_17_12_0_0 <= 0
 inactive_no_flow_17_16_0_0: flow_17_16_0_0 - 1000 edge_17_16_0_0 <= 0
 inactive_no_flow_17_18_0_0: flow_17_18_0_0 - 1000 edge_17_18_0_0 <= 0
 inactive_no_flow_17_19_0_0: flow_17_19_0_0 - 1000 edge_17_19_0_0 <= 0
 inactive_no_flow_18_2_0_0: flow_18_2_0_0 - 1000 edge_18_2_0_0 <= 0
 inactive_no_flow_18_3_0_0: flow_18_3_0_0 - 1000 edge_18_3_0_0 <= 0
 inactive_no_flow_18_4_0_0: flow_18_4_0_0 - 1000 edge_18_4_0_0 <= 0
 inactive_no_flow_18_5_0_0: flow_18_5_0_0 - 1000 edge_18_5_0_0 <= 0
 inactive_no_flow_18_7_0_0: flow_18_7_0_0 - 1000 edge_18_7_0_0 <= 0
 inactive_no_flow_18_8_0_0: flow_18_8_0_0 - 1000 edge_18_8_0_0 <= 0
 inactive_no_flow_18_10_0_0: flow_18_10_0_0 - 1000 edge_18_10_0_0 <= 0
 inactive_no_flow_18_11_0_0: flow_18_11_0_0 - 1000 edge_18_11_0_0 <= 0
 inactive_no_flow_18_12_0_0: flow_18_12_0_0 - 1000 edge_18_12_0_0 <= 0
 inactive_no_flow_18_14_0_0: flow_18_14_0_0 - 1000 edge_18_14_0_0 <= 0
 inactive_no_flow_18_15_0_0: flow_18_15_0_0 - 1000 edge_18_15_0_0 <= 0
 inactive_no_flow_18_16_0_0: flow_18_16_0_0 - 1000 edge_18_16_0_0 <= 0
 inactive_no_flow_18_17_0_0: flow_18_17_0_0 - 1000 edge_18_17_0_0 <= 0
 inactive_no_flow_18_19_0_0: flow_18_19_0_0 - 1000 edge_18_19_0_0 <= 0
 inactive_no_flow_18_20_0_0: flow_18_20_0_0 - 1000 edge_18_20_0_0 <= 0
 inactive_no_flow_18_22_0_0: flow_18_22_0_0 - 1000 edge_18_22_0_0 <= 0
 inactive_no_flow_18_23_0_0: flow_18_23_0_0 - 1000 edge_18_23_0_0 <= 0
 inactive_no_flow_19_15_0_0: flow_19_15_0_0 - 1000 edge_19_15_0_0 <= 0
 inactive_no_flow_19_16_0_0: flow_19_16_0_0 - 1000 edge_19_16_0_0 <= 0
 inactive_no_flow_19_17_0_0: flow_19_17_0_0 - 1000 edge_19_17_0_0 <= 0
 inactive_no_flow_19_18_0_0: flow_19_18_0_0 - 1000 edge_19_18_0_0 <= 0
 inactive_no_flow_19_20_0_0: flow_19_20_0_0 - 1000 edge_19_20_0_0 <= 0
 inactive_no_flow_19_22_0_0: flow_19_22_0_0 - 1000 edge_19_22_0_0 <= 0
 inactive_no_flow_20_2_0_0: flow_20_2_0_0 - 1000 edge_20_2_0_0 <= 0
 inactive_no_flow_20_3_0_0: flow_20_3_0_0 - 1000 edge_20_3_0_0 <= 0
 inactive_no_flow_20_5_0_0: flow_20_5_0_0 - 1000 edge_20_5_0_0 <= 0
 inactive_no_flow_20_6_0_0: flow_20_6_0_0 - 1000 edge_20_6_0_0 <= 0
 inactive_no_flow_20_7_0_0: flow_20_7_0_0 - 1000 edge_20_7_0_0 <= 0
 inactive_no_flow_20_8_0_0: flow_20_8_0_0 - 1000 edge_20_8_0_0 <= 0
 inactive_no_flow_20_10_0_0: flow_20_10_0_0 - 1000 edge_20_10_0_0 <= 0
 inactive_no_flow_20_12_0_0: flow_20_12_0_0 - 1000 edge_20_12_0_0 <= 0
 inactive_no_flow_20_16_0_0: flow_20_16_0_0 - 1000 edge_20_16_0_0 <= 0
 inactive_no_flow_20_17_0_0: flow_20_17_0_0 - 1000 edge_20_17_0_0 <= 0
 inactive_no_flow_20_18_0_0: flow_20_18_0_0 - 1000 edge_20_18_0_0 <= 0
 inactive_no_flow_20_19_0_0: flow_20_19_0_0 - 1000 edge_20_19_0_0 <= 0
 inactive_no_flow_20_21_0_0: flow_20_21_0_0 - 1000 edge_20_21_0_0 <= 0
 inactive_no_flow_20_22_0_0: flow_20_22_0_0 - 1000 edge_20_22_0_0 <= 0
 inactive_no_flow_20_23_0_0: flow_20_23_0_0 - 1000 edge_20_23_0_0 <= 0
 inactive_no_flow_22_16_0_0: flow_22_16_0_0 - 1000 edge_22_16_0_0 <= 0
 inactive_no_flow_22_18_0_0: flow_22_18_0_0 - 1000 edge_22_18_0_0 <= 0
 inactive_no_flow_22_19_0_0: flow_22_19_0_0 - 1000 edge_22_19_0_0 <= 0
 inactive_no_flow_22_20_0_0: flow_22_20_0_0 - 1000 edge_22_20_0_0 <= 0
 inactive_no_flow_22_21_0_0: flow_22_21_0_0 - 1000 edge_22_21_0_0 <= 0
 inactive_no_flow_22_23_0_0: flow_22_23_0_0 - 1000 edge_22_23_0_0 <= 0
 inactive_no_flow_23_22_0_0: flow_23_22_0_0 - 1000 edge_23_22_0_0 <= 0
Bounds
Binaries
 edge_0_2_0_0 edge_0_3_0_0 edge_0_5_0_0 edge_0_6_0_0 edge_0_7_0_0
 edge_0_8_0_0 edge_0_10_0_0 edge_0_14_0_0 edge_0_19_0_0 edge_0_20_0_0
 edge_2_3_0_0 edge_2_4_0_0 edge_2_5_0_0 edge_2_6_0_0 edge_2_7_0_0
 edge_2_8_0_0 edge_2_10_0_0 edge_2_12_0_0 edge_2_16_0_0 edge_2_17_0_0
 edge_2_18_0_0 edge_2_20_0_0 edge_2_22_0_0 edge_2_23_0_0 edge_3_2_0_0
 edge_3_4_0_0 edge_3_5_0_0 edge_3_6_0_0 edge_3_7_0_0 edge_3_8_0_0
 edge_3_10_0_0 edge_3_12_0_0 edge_3_14_0_0 edge_3_16_0_0 edge_3_17_0_0
 edge_3_18_0_0 edge_3_19_0_0 edge_3_20_0_0 edge_3_22_0_0 edge_3_23_0_0
 edge_4_5_0_0 edge_4_8_0_0 edge_5_2_0_0 edge_5_3_0_0 edge_5_4_0_0
 edge_5_6_0_0 edge_5_7_0_0 edge_5_8_0_0 edge_5_10_0_0 edge_5_12_0_0
 edge_5_20_0_0 edge_5_23_0_0 edge_6_2_0_0 edge_6_3_0_0 edge_6_5_0_0
 edge_6_7_0_0 edge_7_2_0_0 edge_7_3_0_0 edge_7_4_0_0 edge_7_5_0_0
 edge_7_6_0_0 edge_7_8_0_0 edge_7_10_0_0 edge_7_12_0_0 edge_7_14_0_0
 edge_7_16_0_0 edge_7_17_0_0 edge_7_18_0_0 edge_7_19_0_0 edge_7_20_0_0
 edge_7_22_0_0 edge_7_23_0_0 edge_8_2_0_0 edge_8_3_0_0 edge_8_4_0_0
 edge_8_5_0_0 edge_8_6_0_0 edge_8_7_0_0 edge_8_10_0_0 edge_8_11_0_0
 edge_8_12_0_0 edge_8_14_0_0 edge_8_16_0_0 edge_8_17_0_0 edge_8_18_0_0
 edge_8_19_0_0 edge_8_20_0_0 edge_8_22_0_0 edge_10_2_0_0 edge_10_3_0_0
 edge_10_4_0_0 edge_10_5_0_0 edge_10_6_0_0 edge_10_7_0_0 edge_10_8_0_0
 edge_10_11_0_0 edge_10_12_0_0 edge_10_14_0_0 edge_10_16_0_0 edge_10_17_0_0
 edge_10_18_0_0 edge_10_19_0_0 edge_10_20_0_0 edge_10_22_0_0 edge_10_23_0_0
 edge_11_14_0_0 edge_12_2_0_0 edge_12_3_0_0 edge_12_4_0_0 edge_12_5_0_0
 edge_12_6_0_0 edge_12_7_0_0 edge_12_8_0_0 edge_12_10_0_0 edge_12_11_0_0
 edge_12_14_0_0 edge_12_16_0_0 edge_12_17_0_0 edge_12_18_0_0 edge_12_19_0_0
 edge_12_20_0_0 edge_12_22_0_0 edge_12_23_0_0 edge_14_2_0_0 edge_14_3_0_0
 edge_14_7_0_0 edge_14_8_0_0 edge_14_10_0_0 edge_14_11_0_0 edge_14_12_0_0
 edge_14_15_0_0 edge_14_16_0_0 edge_14_17_0_0 edge_14_18_0_0 edge_14_19_0_0
 edge_14_20_0_0 edge_14_21_0_0 edge_14_22_0_0 edge_16_2_0_0 edge_16_3_0_0
 edge_16_5_0_0 edge_16_8_0_0 edge_16_10_0_0 edge_16_11_0_0 edge_16_12_0_0
 edge_16_14_0_0 edge_16_15_0_0 edge_16_17_0_0 edge_16_18_0_0 edge_16_19_0_0
 edge_16_20_0_0 edge_16_22_0_0 edge_16_23_0_0 edge_17_12_0_0 edge_17_16_0_0
 edge_17_18_0_0 edge_17_19_0_0 edge_18_2_0_0 edge_18_3_0_0 edge_18_4_0_0
 edge_18_5_0_0 edge_18_7_0_0 edge_18_8_0_0 edge_18_10_0_0 edge_18_11_0_0
 edge_18_12_0_0 edge_18_14_0_0 edge_18_15_0_0 edge_18_16_0_0 edge_18_17_0_0
 edge_18_19_0_0 edge_18_20_0_0 edge_18_22_0_0 edge_18_23_0_0 edge_19_15_0_0
 edge_19_16_0_0 edge_19_17_0_0 edge_19_18_0_0 edge_19_20_0_0 edge_19_22_0_0
 edge_20_2_0_0 edge_20_3_0_0 edge_20_5_0_0 edge_20_6_0_0 edge_20_7_0_0
 edge_20_8_0_0 edge_20_10_0_0 edge_20_12_0_0 edge_20_16_0_0 edge_20_17_0_0
 edge_20_18_0_0 edge_20_19_0_0 edge_20_21_0_0 edge_20_22_0_0 edge_20_23_0_0
 edge_22_16_0_0 edge_22_18_0_0 edge_22_19_0_0 edge_22_20_0_0 edge_22_21_0_0
 edge_22_23_0_0 edge_23_22_0_0
End
